param set_len = 90;
param target := 769;
set values := 24, 30, 17, 27, 8, 28, 26, 9, 1, 11, 1, 5, 3, 19, 29, 1, 14, 3, 7, 1, 5, 11, 11, 19, 10, 15, 24, 25, 30, 1, 8, 4, 19, 22, 1, 26, 13, 22, 31, 24, 27, 10, 29, 23, 22, 16, 26, 2, 3, 18, 23, 27, 17, 15, 22, 20, 3, 8, 15, 21, 19, 0, 31, 15, 15, 30, 14, 17, 18, 29, 18, 13, 23, 10, 25, 27, 6, 21, 26, 10, 24, 1, 19, 26, 16, 5, 11, 22, 13, 20, ;
